node 0 w: 6.16, h: 12.95
node 1 w: 4.9, h: 12.95
node 2 w: 8.2026-06-13 13:02:27 - INFO - Set parameter WLSAccessID
2026-06-13 13:02:27 - INFO - Set parameter WLSSecret
2026-06-13 13:02:27 - INFO - Set parameter LicenseID to value 2756663
2026-06-13 13:02:27 - INFO - Academic license 2756663 - for non-commercial use only - registered to hu___@sjtu.edu.cn
2026-06-13 13:02:27 - INFO - Set parameter TimeLimit to value 300
2026-06-13 13:02:27 - INFO - Set parameter MIPGap to value 0
2026-06-13 13:02:27 - INFO - Set parameter MIPFocus to value 3
2026-06-13 13:02:27 - INFO - Set parameter Heuristics to value 0.5
2026-06-13 13:02:27 - INFO - Set parameter LogToConsole to value 1
2026-06-13 13:02:27 - INFO - Gurobi Optimizer version 13.0.1 build v13.0.1rc0 (linux64 - "Ubuntu 20.04.6 LTS")
2026-06-13 13:02:27 - INFO - 
2026-06-13 13:02:27 - INFO - CPU model: AMD Ryzen 9 9950X3D 16-Core Processor, instruction set [SSE2|AVX|AVX2|AVX512]
2026-06-13 13:02:27 - INFO - Thread count: 14 physical cores, 28 logical processors, using up to 28 threads
2026-06-13 13:02:27 - INFO - 
2026-06-13 13:02:27 - INFO - Non-default parameters:
2026-06-13 13:02:27 - INFO - TimeLimit  300
2026-06-13 13:02:27 - INFO - MIPGap  0
2026-06-13 13:02:27 - INFO - Heuristics  0.5
2026-06-13 13:02:27 - INFO - MIPFocus  3
2026-06-13 13:02:27 - INFO - 
2026-06-13 13:02:27 - INFO - Academic license 2756663 - for non-commercial use only - registered to hu___@sjtu.edu.cn
2026-06-13 13:02:27 - INFO - Optimize a model with 1455 rows, 665 columns and 4971 nonzeros (Min)
2026-06-13 13:02:27 - INFO - Model fingerprint: 0xf7344a80
2026-06-13 13:02:27 - INFO - Model has 4 linear objective coefficients
2026-06-13 13:02:27 - INFO - Variable types: 264 continuous, 401 integer (401 binary)
2026-06-13 13:02:27 - INFO - Coefficient statistics:
2026-06-13 13:02:27 - INFO -   Matrix range     [3e-01, 8e+03]
2026-06-13 13:02:27 - INFO -   Objective range  [6e-06, 8e-02]
2026-06-13 13:02:27 - INFO -   Bounds range     [9e-01, 2e+07]
2026-06-13 13:02:27 - INFO -   RHS range        [9e-01, 3e+02]
2026-06-13 13:02:27 - INFO - 
2026-06-13 13:02:27 - INFO - Presolve removed 121 rows and 105 columns
2026-06-13 13:02:27 - INFO - Presolve time: 0.01s
2026-06-13 13:02:27 - INFO - Presolved: 1334 rows, 560 columns, 4710 nonzeros
2026-06-13 13:02:27 - INFO - Variable types: 185 continuous, 375 integer (375 binary)
2026-06-13 13:02:27 - INFO - Root relaxation presolve removed 148 rows and 36 columns
2026-06-13 13:02:27 - INFO - Root relaxation presolved: 1186 rows, 548 columns, 4372 nonzeros
2026-06-13 13:02:27 - INFO - 
2026-06-13 13:02:27 - INFO - 
2026-06-13 13:02:27 - INFO - Root relaxation: objective -1.600976e+01, 295 iterations, 0.00 seconds (0.01 work units)
2026-06-13 13:02:27 - INFO - 
2026-06-13 13:02:27 - INFO -     Nodes    |    Current Node    |     Objective Bounds      |     Work
2026-06-13 13:02:27 - INFO -  Expl Unexpl |  Obj  Depth IntInf | Incumbent    BestBd   Gap | It/Node Time
2026-06-13 13:02:27 - INFO - 
2026-06-13 13:02:27 - INFO -      0     0  -16.00976    0  153          -  -16.00976      -     -    0s
2026-06-13 13:02:27 - INFO -      0     0   -8.96506    0  169          -   -8.96506      -     -    0s
2026-06-13 13:02:27 - INFO -      0     0   -8.96506    0  158          -   -8.96506      -     -    0s
2026-06-13 13:02:27 - INFO -      0     0   -5.06255    0  153          -   -5.06255      -     -    0s
2026-06-13 13:02:27 - INFO -      0     0   -5.06255    0  154          -   -5.06255      -     -    0s
2026-06-13 13:02:27 - INFO -      0     0   -5.06255    0  157          -   -5.06255      -     -    0s
2026-06-13 13:02:27 - INFO -      0     0   -5.06255    0  157          -   -5.06255      -     -    0s
2026-06-13 13:02:27 - INFO -      0     0   -5.06255    0  157          -   -5.06255      -     -    0s
2026-06-13 13:02:27 - INFO -      0     0   -5.06255    0  157          -   -5.06255      -     -    0s
2026-06-13 13:02:27 - INFO -      0     0   -3.47589    0  176          -   -3.47589      -     -    0s
2026-06-13 13:02:27 - INFO -      0     0   -3.47589    0  176          -   -3.47589      -     -    0s
2026-06-13 13:02:27 - INFO -      0     0   -3.47589    0  167          -   -3.47589      -     -    0s
2026-06-13 13:02:27 - INFO -      0     0    2.11958    0  153          -    2.11958      -     -    0s
2026-06-13 13:02:27 - INFO -      0     0    2.11958    0  163          -    2.11958      -     -    0s
2026-06-13 13:02:27 - INFO -      0     0    2.37790    0  176          -    2.37790      -     -    0s
2026-06-13 13:02:27 - INFO -      0     0    2.37790    0  175          -    2.37790      -     -    0s
2026-06-13 13:02:27 - INFO -      0     0    2.37790    0  158          -    2.37790      -     -    0s
2026-06-13 13:02:27 - INFO -      0     0    3.03881    0  147          -    3.03881      -     -    0s
2026-06-13 13:02:27 - INFO -      0     0    3.04764    0  161          -    3.04764      -     -    0s
2026-06-13 13:02:27 - INFO -      0     0    3.10338    0  176          -    3.10338      -     -    0s
2026-06-13 13:02:27 - INFO -      0     0    3.10338    0  184          -    3.10338      -     -    0s
2026-06-13 13:02:28 - INFO -      0     0    3.44363    0  185          -    3.44363      -     -    0s
2026-06-13 13:02:28 - INFO -      0     0    3.44363    0  184          -    3.44363      -     -    0s
2026-06-13 13:02:28 - INFO -      0     0    3.44363    0  154          -    3.44363      -     -    0s
2026-06-13 13:02:28 - INFO -      0     0    3.54278    0  153          -    3.54278      -     -    0s
2026-06-13 13:02:28 - INFO -      0     0    3.54278    0  151          -    3.54278      -     -    1s
2026-06-13 13:02:29 - INFO -      0     2    3.54278    0  150          -    3.54278      -     -    2s
2026-06-13 13:02:33 - INFO -   1963  1936    4.36975    7  197          -    4.25339      -  71.1    5s
2026-06-13 13:02:37 - INFO -   5829  3483    6.28230   22   97          -    6.22515      -  77.8   10s
2026-06-13 13:02:42 - INFO -  20168 10214    6.95549   22   86          -    6.82026      -  56.1   15s
2026-06-13 13:02:47 - INFO -  38749 15870    7.19173   21   85          -    7.15260      -  52.0   20s
2026-06-13 13:02:52 - INFO -  52509 19926 infeasible   23               -    7.31837      -  51.9   25s
2026-06-13 13:02:57 - INFO -  83099 27154   11.04582   30   60          -    7.58464      -  48.7   30s
2026-06-13 13:03:02 - INFO -  91518 28499    7.81010   24   88          -    7.64890      -  48.6   35s
2026-06-13 13:03:07 - INFO -  131238 33788    8.56854   26   34          -    8.08000      -  46.1   40s
2026-06-13 13:03:12 - INFO -  147410 33890 infeasible   28               -    8.30154      -  46.1   45s
2026-06-13 13:03:17 - INFO -  157390 31434    9.19105   33   35          -    8.46631      -  46.1   50s
2026-06-13 13:03:22 - INFO -  189401 29520 infeasible   33               -    8.79051      -  45.7   55s
2026-06-13 13:03:27 - INFO -  201497 27826 infeasible   35               -    8.94000      -  45.5   60s
2026-06-13 13:03:32 - INFO -  221230 25120    9.47002   31   41          -    9.23739      -  45.3   65s
2026-06-13 13:03:38 - INFO -  230646 21930 infeasible   28               -    9.37487      -  45.2   70s
2026-06-13 13:03:42 - INFO -  256540 14968 infeasible   34               -    9.85801      -  44.8   75s
2026-06-13 13:03:47 - INFO -  284164  5377 infeasible   29               -   10.70988      -  44.1   80s
2026-06-13 13:03:51 - INFO - 
2026-06-13 13:03:51 - INFO - Cutting planes:
2026-06-13 13:03:51 - INFO -   Learned: 41
2026-06-13 13:03:51 - INFO -   Gomory: 158
2026-06-13 13:03:51 - INFO -   Lift-and-project: 68
2026-06-13 13:03:51 - INFO -   Cover: 15
2026-06-13 13:03:51 - INFO -   Implied bound: 3
2026-06-13 13:03:51 - INFO -   MIR: 137
2026-06-13 13:03:51 - INFO -   Mixing: 2
2026-06-13 13:03:51 - INFO -   Flow cover: 669
2026-06-13 13:03:51 - INFO -   GUB cover: 1
2026-06-13 13:03:51 - INFO -   Inf proof: 131
2026-06-13 13:03:51 - INFO -   Zero half: 1
2026-06-13 13:03:51 - INFO -   Network: 1
2026-06-13 13:03:51 - INFO -   RLT: 1
2026-06-13 13:03:51 - INFO -   Relax-and-lift: 1
2026-06-13 13:03:51 - INFO - 
2026-06-13 13:03:51 - INFO - Explored 293768 nodes (12866751 simplex iterations) in 84.65 seconds (143.59 work units)
2026-06-13 13:03:51 - INFO - Thread count was 28 (of 28 available processors)
2026-06-13 13:03:51 - INFO - 
2026-06-13 13:03:51 - INFO - Solution count 0
2026-06-13 13:03:51 - INFO - 
2026-06-13 13:03:51 - INFO - Model is infeasible or unbounded
2026-06-13 13:03:51 - INFO - Best objective -, best bound -, gap -
2026-06-13 13:03:51 - INFO - Set parameter TimeLimit to value 300
2026-06-13 13:03:51 - INFO - Set parameter MIPGap to value 0.3
2026-06-13 13:03:51 - INFO - Set parameter MIPFocus to value 3
2026-06-13 13:03:51 - INFO - Set parameter Heuristics to value 0.5
2026-06-13 13:03:51 - INFO - Set parameter LogToConsole to value 1
2026-06-13 13:03:51 - INFO - Gurobi Optimizer version 13.0.1 build v13.0.1rc0 (linux64 - "Ubuntu 20.04.6 LTS")
2026-06-13 13:03:51 - INFO - 
2026-06-13 13:03:51 - INFO - CPU model: AMD Ryzen 9 9950X3D 16-Core Processor, instruction set [SSE2|AVX|AVX2|AVX512]
2026-06-13 13:03:51 - INFO - Thread count: 14 physical cores, 28 logical processors, using up to 28 threads
2026-06-13 13:03:51 - INFO - 
2026-06-13 13:03:51 - INFO - Non-default parameters:
2026-06-13 13:03:51 - INFO - TimeLimit  300
2026-06-13 13:03:51 - INFO - MIPGap  0.3
2026-06-13 13:03:51 - INFO - Heuristics  0.5
2026-06-13 13:03:51 - INFO - MIPFocus  3
2026-06-13 13:03:51 - INFO - 
2026-06-13 13:03:51 - INFO - Academic license 2756663 - for non-commercial use only - registered to hu___@sjtu.edu.cn
2026-06-13 13:03:51 - INFO - Optimize a model with 1455 rows, 665 columns and 4971 nonzeros (Min)
2026-06-13 13:03:51 - INFO - Model fingerprint: 0xf7344a80
2026-06-13 13:03:51 - INFO - Model has 4 linear objective coefficients
2026-06-13 13:03:51 - INFO - Variable types: 264 continuous, 401 integer (401 binary)
2026-06-13 13:03:51 - INFO - Coefficient statistics:
2026-06-13 13:03:51 - INFO -   Matrix range     [3e-01, 8e+03]
2026-06-13 13:03:51 - INFO -   Objective range  [6e-06, 8e-02]
2026-06-13 13:03:51 - INFO -   Bounds range     [9e-01, 2e+07]
2026-06-13 13:03:51 - INFO -   RHS range        [9e-01, 3e+02]
2026-06-13 13:03:51 - INFO - 
2026-06-13 13:03:51 - INFO - Presolved: 1334 rows, 560 columns, 4710 nonzeros
2026-06-13 13:03:51 - INFO - 
2026-06-13 13:03:51 - INFO - Continuing optimization...
2026-06-13 13:03:51 - INFO - 
2026-06-13 13:03:51 - INFO - 
2026-06-13 13:03:51 - INFO - Cutting planes:
2026-06-13 13:03:51 - INFO -   Learned: 41
2026-06-13 13:03:51 - INFO -   Gomory: 158
2026-06-13 13:03:51 - INFO -   Lift-and-project: 68
2026-06-13 13:03:51 - INFO -   Cover: 15
2026-06-13 13:03:51 - INFO -   Implied bound: 3
2026-06-13 13:03:51 - INFO -   MIR: 137
2026-06-13 13:03:51 - INFO -   Mixing: 2
2026-06-13 13:03:51 - INFO -   Flow cover: 669
2026-06-13 13:03:51 - INFO -   GUB cover: 1
2026-06-13 13:03:51 - INFO -   Inf proof: 131
2026-06-13 13:03:51 - INFO -   Zero half: 1
2026-06-13 13:03:51 - INFO -   Network: 1
2026-06-13 13:03:51 - INFO -   RLT: 1
2026-06-13 13:03:51 - INFO -   Relax-and-lift: 1
2026-06-13 13:03:51 - INFO - 
2026-06-13 13:03:51 - INFO - Explored 293768 nodes (12866751 simplex iterations) in 84.67 seconds (143.59 work units)
2026-06-13 13:03:51 - INFO - Most recent optimization runtime was 0.00 seconds (0.00 work units)
2026-06-13 13:03:51 - INFO - Thread count was 28 (of 28 available processors)
2026-06-13 13:03:51 - INFO - 
2026-06-13 13:03:51 - INFO - Solution count 0
2026-06-13 13:03:51 - INFO - 
2026-06-13 13:03:51 - INFO - Model is infeasible or unbounded
2026-06-13 13:03:51 - INFO - Best objective -, best bound -, gap -
2026-06-13 13:03:51 - INFO - Set parameter TimeLimit to value 3600
2026-06-13 13:03:51 - INFO - Set parameter MIPGap to value 0.8
2026-06-13 13:03:51 - INFO - Set parameter MIPFocus to value 3
2026-06-13 13:03:51 - INFO - Set parameter Heuristics to value 0.5
2026-06-13 13:03:51 - INFO - Set parameter LogToConsole to value 1
2026-06-13 13:03:51 - INFO - Gurobi Optimizer version 13.0.1 build v13.0.1rc0 (linux64 - "Ubuntu 20.04.6 LTS")
2026-06-13 13:03:51 - INFO - 
2026-06-13 13:03:51 - INFO - CPU model: AMD Ryzen 9 9950X3D 16-Core Processor, instruction set [SSE2|AVX|AVX2|AVX512]
2026-06-13 13:03:51 - INFO - Thread count: 14 physical cores, 28 logical processors, using up to 28 threads
2026-06-13 13:03:51 - INFO - 
2026-06-13 13:03:51 - INFO - Non-default parameters:
2026-06-13 13:03:51 - INFO - TimeLimit  3600
2026-06-13 13:03:51 - INFO - MIPGap  0.8
2026-06-13 13:03:51 - INFO - Heuristics  0.5
2026-06-13 13:03:51 - INFO - MIPFocus  3
2026-06-13 13:03:51 - INFO - 
2026-06-13 13:03:51 - INFO - Academic license 2756663 - for non-commercial use only - registered to hu___@sjtu.edu.cn
2026-06-13 13:03:51 - INFO - Optimize a model with 1455 rows, 665 columns and 4971 nonzeros (Min)
2026-06-13 13:03:51 - INFO - Model fingerprint: 0xf7344a80
2026-06-13 13:03:51 - INFO - Model has 4 linear objective coefficients
2026-06-13 13:03:51 - INFO - Variable types: 264 continuous, 401 integer (401 binary)
2026-06-13 13:03:51 - INFO - Coefficient statistics:
2026-06-13 13:03:51 - INFO -   Matrix range     [3e-01, 8e+03]
2026-06-13 13:03:51 - INFO -   Objective range  [6e-06, 8e-02]
2026-06-13 13:03:51 - INFO -   Bounds range     [9e-01, 2e+07]
2026-06-13 13:03:51 - INFO -   RHS range        [9e-01, 3e+02]
2026-06-13 13:03:51 - INFO - 
2026-06-13 13:03:51 - INFO - Presolved: 1334 rows, 560 columns, 4710 nonzeros
2026-06-13 13:03:51 - INFO - 
2026-06-13 13:03:51 - INFO - Continuing optimization...
2026-06-13 13:03:51 - INFO - 
2026-06-13 13:03:51 - INFO - 
2026-06-13 13:03:51 - INFO - Cutting planes:
2026-06-13 13:03:51 - INFO -   Learned: 41
2026-06-13 13:03:51 - INFO -   Gomory: 158
2026-06-13 13:03:51 - INFO -   Lift-and-project: 68
2026-06-13 13:03:51 - INFO -   Cover: 15
2026-06-13 13:03:51 - INFO -   Implied bound: 3
2026-06-13 13:03:51 - INFO -   MIR: 137
2026-06-13 13:03:51 - INFO -   Mixing: 2
2026-06-13 13:03:51 - INFO -   Flow cover: 669
2026-06-13 13:03:51 - INFO -   GUB cover: 1
2026-06-13 13:03:51 - INFO -   Inf proof: 131
2026-06-13 13:03:51 - INFO -   Zero half: 1
2026-06-13 13:03:51 - INFO -   Network: 1
2026-06-13 13:03:51 - INFO -   RLT: 1
2026-06-13 13:03:51 - INFO -   Relax-and-lift: 1
2026-06-13 13:03:51 - INFO - 
2026-06-13 13:03:51 - INFO - Explored 293768 nodes (12866751 simplex iterations) in 84.67 seconds (143.59 work units)
2026-06-13 13:03:51 - INFO - Most recent optimization runtime was 0.00 seconds (0.00 work units)
2026-06-13 13:03:51 - INFO - Thread count was 28 (of 28 available processors)
2026-06-13 13:03:51 - INFO - 
2026-06-13 13:03:51 - INFO - Solution count 0
2026-06-13 13:03:51 - INFO - 
2026-06-13 13:03:51 - INFO - Model is infeasible or unbounded
2026-06-13 13:03:51 - INFO - Best objective -, best bound -, gap -
2026-06-13 13:03:51 - INFO - 
EMIB returned 0 solution(s) (max 1).
n)
Model fingerprint: 0xf7344a80
Model has 4 linear objective coefficients
Variable types: 264 continuous, 401 integer (401 binary)
Coefficient statistics:
  Matrix range     [3e-01, 8e+03]
  Objective range  [6e-06, 8e-02]
  Bounds range     [9e-01, 2e+07]
  RHS range        [9e-01, 3e+02]

Presolved: 1334 rows, 560 columns, 4710 nonzeros

Continuing optimization...


Cutting planes:
  Learned: 41
  Gomory: 158
  Lift-and-project: 68
  Cover: 15
  Implied bound: 3
  MIR: 137
  Mixing: 2
  Flow cover: 669
  GUB cover: 1
  Inf proof: 131
  Zero half: 1
  Network: 1
  RLT: 1
  Relax-and-lift: 1

Explored 293768 nodes (12866751 simplex iterations) in 84.67 seconds (143.59 work units)
Most recent optimization runtime was 0.00 seconds (0.00 work units)
Thread count was 28 (of 28 available processors)

Solution count 0

Model is infeasible or unbounded
Best objective -, best bound -, gap -
[EMIB] No feasible solution: MIPGap=0.8, status=4, time=0.00s, SolCount=0
[EMIB] Search failed, no feasible solution
  ✓ EMIB: 0 solution(s)
